
Gurobi 7.5.2 (linux64) logging started Sat Jul  7 16:27:58 2018

Changed value of parameter LogFile to result/ilp/simNo_6-n_100-m_40-s_4-minVAF_0.05-cov_10000-k_1-fn_0.15-fp_0.0001-na_0.15.ILP.gurobiSolverLog
   Prev: gurobi.log  Default: 
Changed value of parameter TimeLimit to 86400.0
   Prev: 1e+100  Min: 0.0  Max: 1e+100  Default: 1e+100
Optimize a model with 639293 rows, 10765 columns and 1940420 nonzeros
Variable types: 0 continuous, 10765 integer (10765 binary)
Coefficient statistics:
  Matrix range     [5e-04, 4e+00]
  Objective range  [2e+00, 1e+01]
  Bounds range     [1e+00, 1e+00]
  RHS range        [3e-01, 2e+00]
Found heuristic solution: objective -14127.48520
Presolve removed 129501 rows and 1007 columns (presolve time = 6s) ...
Presolve removed 131617 rows and 1007 columns (presolve time = 10s) ...
Presolve removed 131617 rows and 1007 columns (presolve time = 15s) ...
Presolve removed 132179 rows and 1007 columns (presolve time = 22s) ...
Presolve removed 188379 rows and 1569 columns (presolve time = 25s) ...
Presolve removed 188379 rows and 1569 columns
Presolve time: 29.37s
Presolved: 450914 rows, 9196 columns, 1357460 nonzeros
Variable types: 0 continuous, 9196 integer (9196 binary)
Presolved: 9196 rows, 460110 columns, 1366656 nonzeros

Presolve removed 9196 rows and 460110 columns

Root simplex log...

Iteration    Objective       Primal Inf.    Dual Inf.      Time
       0    1.0628155e+01   0.000000e+00   7.162100e+04     34s
    8984   -2.1955848e+02   0.000000e+00   5.995310e+04     35s
   25929   -3.4517953e+02   0.000000e+00   8.341386e+04     40s
   37315   -3.8036307e+02   6.141164e-02   0.000000e+00     45s
   37317   -3.8036307e+02   0.000000e+00   0.000000e+00     45s
   37317   -3.8036307e+02   0.000000e+00   0.000000e+00     46s

Root relaxation: objective -3.803631e+02, 37317 iterations, 15.27 seconds
Total elapsed time = 122.17s
Total elapsed time = 146.23s

    Nodes    |    Current Node    |     Objective Bounds      |     Work
 Expl Unexpl |  Obj  Depth IntInf | Incumbent    BestBd   Gap | It/Node Time

     0     0 -380.36307    0 1232 -14127.485 -380.36307  97.3%     -  173s
H    0     0                    -497.8484160 -380.36307  23.6%     -  178s
H    0     0                    -477.7885897 -380.36307  20.4%     -  181s
     0     0 -386.96995    0 1255 -477.78859 -386.96995  19.0%     -  285s
H    0     0                    -467.6429363 -386.96995  17.3%     -  296s
H    0     0                    -438.4650071 -386.96995  11.7%     -  302s
     0     0 -387.42321    0 1272 -438.46501 -387.42321  11.6%     -  333s
     0     0 -390.96099    0 1361 -438.46501 -390.96099  10.8%     -  544s
     0     0 -390.96099    0 1358 -438.46501 -390.96099  10.8%     -  556s
     0     0 -393.31959    0 1467 -438.46501 -393.31959  10.3%     -  779s
     0     0 -393.45739    0 1475 -438.46501 -393.45739  10.3%     -  804s
     0     0 -395.28101    0 1417 -438.46501 -395.28101  9.85%     -  883s
     0     0 -395.28101    0 1416 -438.46501 -395.28101  9.85%     -  895s
     0     0 -396.54396    0 1175 -438.46501 -396.54396  9.56%     -  958s
H    0     0                    -436.6413865 -396.54396  9.18%     -  973s
     0     0 -396.62119    0 1345 -436.64139 -396.62119  9.17%     -  988s
     0     0 -396.62119    0 1344 -436.64139 -396.62119  9.17%     -  996s
     0     0 -398.10246    0 1353 -436.64139 -398.10246  8.83%     - 1328s
     0     0 -398.13192    0 1479 -436.64139 -398.13192  8.82%     - 1359s
     0     0 -399.95669    0 1462 -436.64139 -399.95669  8.40%     - 2441s
     0     0 -399.97709    0 1463 -436.64139 -399.97709  8.40%     - 2470s
     0     0 -401.35773    0 1469 -436.64139 -401.35773  8.08%     - 2944s
H    0     0                    -430.7221025 -401.35773  6.82%     - 2950s
     0     0 -401.40772    0 1379 -430.72210 -401.40772  6.81%     - 2963s
     0     0 -401.86097    0 1452 -430.72210 -401.86097  6.70%     - 3272s
     0     0 -401.86135    0 1542 -430.72210 -401.86135  6.70%     - 3294s
     0     0 -402.98320    0 1625 -430.72210 -402.98320  6.44%     - 5726s
     0     0 -403.00063    0 1290 -430.72210 -403.00063  6.44%     - 5757s
     0     0 -403.00063    0 1289 -430.72210 -403.00063  6.44%     - 5762s
     0     0 -403.72545    0 1445 -430.72210 -403.72545  6.27%     - 5960s
     0     0 -403.87742    0 1443 -430.72210 -403.87742  6.23%     - 6005s
     0     0 -403.87742    0 1443 -430.72210 -403.87742  6.23%     - 6008s
     0     0 -406.15164    0 1072 -430.72210 -406.15164  5.70%     - 8219s
H    0     0                    -427.0748614 -406.15164  4.90%     - 8227s
     0     0 -406.17431    0 1077 -427.07486 -406.17431  4.89%     - 8259s
     0     0 -406.17431    0 1076 -427.07486 -406.17431  4.89%     - 8262s
     0     0 -406.69780    0 1427 -427.07486 -406.69780  4.77%     - 9103s
     0     0 -407.23409    0 1521 -427.07486 -407.23409  4.65%     - 9464s
     0     0 -407.41522    0 1413 -427.07486 -407.41522  4.60%     - 9509s
     0     0 -407.41522    0 1414 -427.07486 -407.41522  4.60%     - 9513s
     0     0 -407.92529    0 1293 -427.07486 -407.92529  4.48%     - 10846s
     0     0 -408.20549    0 1423 -427.07486 -408.20549  4.42%     - 11314s
     0     0 -408.28391    0 1403 -427.07486 -408.28391  4.40%     - 11372s
     0     0 -408.34904    0 1437 -427.07486 -408.34904  4.38%     - 11519s
     0     0 -408.34904    0 1435 -427.07486 -408.34904  4.38%     - 11523s
     0     0 -409.37443    0 1207 -427.07486 -409.37443  4.14%     - 20470s
     0     0 -410.13398    0 1424 -427.07486 -410.13398  3.97%     - 21305s
     0     0 -410.17408    0 1442 -427.07486 -410.17408  3.96%     - 21320s
     0     0 -410.24407    0 1430 -427.07486 -410.24407  3.94%     - 21340s
     0     0 -410.34538    0 1413 -427.07486 -410.34538  3.92%     - 21414s
     0     0 -410.34538    0 1416 -427.07486 -410.34538  3.92%     - 21420s
     0     0 -412.21470    0 1404 -427.07486 -412.21470  3.48%     - 25277s
     0     0 -412.30634    0 1420 -427.07486 -412.30634  3.46%     - 25352s
     0     0 -412.36851    0 1432 -427.07486 -412.36851  3.44%     - 25381s
     0     0 -412.42032    0 1433 -427.07486 -412.42032  3.43%     - 25399s
     0     0 -412.42032    0 1434 -427.07486 -412.42032  3.43%     - 25404s
     0     0 -413.23889    0 1186 -427.07486 -413.23889  3.24%     - 27404s
H    0     0                    -425.2512408 -413.23889  2.82%     - 27416s
     0     0 -413.66492    0 1356 -425.25124 -413.66492  2.72%     - 28310s
     0     0 -413.78048    0 1400 -425.25124 -413.78048  2.70%     - 28672s
     0     0 -413.82668    0 1385 -425.25124 -413.82668  2.69%     - 28803s
     0     0 -413.91903    0 1400 -425.25124 -413.91903  2.66%     - 28969s
     0     0 -413.98641    0 1402 -425.25124 -413.98641  2.65%     - 29022s
     0     0 -413.98641    0 1403 -425.25124 -413.98641  2.65%     - 29026s
     0     0 -414.46004    0 1396 -425.25124 -414.46004  2.54%     - 35310s
     0     0 -414.67805    0 1394 -425.25124 -414.67805  2.49%     - 35339s
     0     0 -414.69229    0 1385 -425.25124 -414.69229  2.48%     - 35352s
     0     0 -414.69229    0 1390 -425.25124 -414.69229  2.48%     - 35355s
     0     0 -414.69903    0 1397 -425.25124 -414.69903  2.48%     - 35385s
     0     0 -414.69903    0 1398 -425.25124 -414.69903  2.48%     - 35398s
     0     0 -415.19633    0 1363 -425.25124 -415.19633  2.36%     - 36198s
     0     0 -415.49927    0 1356 -425.25124 -415.49927  2.29%     - 36764s
     0     0 -415.49927    0 1353 -425.25124 -415.49927  2.29%     - 36769s
     0     0 -416.31899    0 1436 -425.25124 -416.31899  2.10%     - 38652s
     0     0 -416.78804    0 1410 -425.25124 -416.78804  1.99%     - 38976s
     0     0 -416.85121    0 1431 -425.25124 -416.85121  1.98%     - 39015s
     0     0 -416.85178    0 1439 -425.25124 -416.85178  1.98%     - 39020s
     0     0 -417.27784    0 1385 -425.25124 -417.27784  1.87%     - 41120s
     0     0 -417.27784    0 1222 -425.25124 -417.27784  1.87%     - 41260s
     0     0 -417.27784    0 1372 -425.25124 -417.27784  1.87%     - 41286s
     0     0 -417.27784    0 1366 -425.25124 -417.27784  1.87%     - 41298s
     0     0 -417.27784    0 1370 -425.25124 -417.27784  1.87%     - 41299s
     0     0 -417.27784    0 1367 -425.25124 -417.27784  1.87%     - 41300s
     0     0 -417.27784    0 1367 -425.25124 -417.27784  1.87%     - 41301s
     0     0 -417.27784    0 1367 -425.25124 -417.27784  1.87%     - 41302s
     0     0 -418.72768    0 1315 -425.25124 -418.72768  1.53%     - 41355s
     0     0 -418.72768    0 1125 -425.25124 -418.72768  1.53%     - 41381s
     0     0 -418.72768    0 1046 -425.25124 -418.72768  1.53%     - 41389s
     0     0 -418.72768    0 1222 -425.25124 -418.72768  1.53%     - 41391s
     0     0 -418.72768    0  888 -425.25124 -418.72768  1.53%     - 41392s
     0     0 -418.73967    0 1189 -425.25124 -418.73967  1.53%     - 41393s
     0     0 -418.73967    0 1189 -425.25124 -418.73967  1.53%     - 41393s
     0     0 -419.13675    0  855 -425.25124 -419.13675  1.44%     - 41396s
     0     0 -419.19922    0 1220 -425.25124 -419.19922  1.42%     - 41397s
     0     0 -419.19922    0 1221 -425.25124 -419.19922  1.42%     - 41397s
     0     0 -419.21388    0 1212 -425.25124 -419.21388  1.42%     - 41400s
     0     0 -419.37885    0 1216 -425.25124 -419.37885  1.38%     - 41401s
     0     0 -419.38715    0 1212 -425.25124 -419.38715  1.38%     - 41401s
     0     0 -419.40289    0 1218 -425.25124 -419.40289  1.38%     - 41402s
     0     0 -419.40289    0 1218 -425.25124 -419.40289  1.38%     - 41402s
     0     0 -419.47441    0 1222 -425.25124 -419.47441  1.36%     - 41404s
     0     0 -419.49858    0 1221 -425.25124 -419.49858  1.35%     - 41405s
     0     0 -419.51870    0 1224 -425.25124 -419.51870  1.35%     - 41406s
     0     0 -419.51870    0 1224 -425.25124 -419.51870  1.35%     - 41407s
     0     0 -419.52105    0 1235 -425.25124 -419.52105  1.35%     - 41409s
     0     0 -419.53040    0 1243 -425.25124 -419.53040  1.35%     - 41409s
     0     0 -419.53040    0 1243 -425.25124 -419.53040  1.35%     - 41410s
     0     0 -419.54187    0 1225 -425.25124 -419.54187  1.34%     - 41412s
     0     0 -419.54187    0 1225 -425.25124 -419.54187  1.34%     - 41413s
     0     0 -419.62870    0 1227 -425.25124 -419.62870  1.32%     - 41424s
     0     0 -419.67514    0 1209 -425.25124 -419.67514  1.31%     - 41425s
     0     0 -419.67644    0 1216 -425.25124 -419.67644  1.31%     - 41426s
     0     0 -419.67644    0 1220 -425.25124 -419.67644  1.31%     - 41428s
     0     0 -419.67660    0 1220 -425.25124 -419.67660  1.31%     - 41428s
     0     0 -419.71380    0 1220 -425.25124 -419.71380  1.30%     - 41430s
     0     0 -419.71965    0 1227 -425.25124 -419.71965  1.30%     - 41431s
     0     0 -419.71965    0 1227 -425.25124 -419.71965  1.30%     - 41432s
     0     0 -419.74480    0 1230 -425.25124 -419.74480  1.29%     - 41439s
     0     0 -419.74480    0 1231 -425.25124 -419.74480  1.29%     - 41440s
     0     0 -419.74480    0 1232 -425.25124 -419.74480  1.29%     - 41445s
     0     0 -419.74480    0 1231 -425.25124 -419.74480  1.29%     - 41449s
     0     0 -419.74480    0 1068 -425.25124 -419.74480  1.29%     - 41464s
     0     0 -419.74480    0 1149 -425.25124 -419.74480  1.29%     - 41468s
     0     0 -419.74480    0 1161 -425.25124 -419.74480  1.29%     - 41470s
     0     0 -419.74480    0 1157 -425.25124 -419.74480  1.29%     - 41471s
     0     0 -419.74480    0 1168 -425.25124 -419.74480  1.29%     - 41471s
     0     0 -419.74480    0 1161 -425.25124 -419.74480  1.29%     - 41472s
     0     0 -419.74480    0 1162 -425.25124 -419.74480  1.29%     - 41472s
     0     0 -419.74480    0 1160 -425.25124 -419.74480  1.29%     - 41472s
     0     0 -419.74480    0 1165 -425.25124 -419.74480  1.29%     - 41473s
     0     0 -420.16698    0 1150 -425.25124 -420.16698  1.20%     - 41474s
     0     0 -420.19381    0 1151 -425.25124 -420.19381  1.19%     - 41475s
     0     0 -420.19381    0 1155 -425.25124 -420.19381  1.19%     - 41475s
     0     0 -420.84818    0 1132 -425.25124 -420.84818  1.04%     - 41476s
     0     0 -420.84818    0 1134 -425.25124 -420.84818  1.04%     - 41477s
     0     0 -420.84818    0 1137 -425.25124 -420.84818  1.04%     - 41478s
     0     0 -420.84818    0 1136 -425.25124 -420.84818  1.04%     - 41479s
     0     0 -420.84818    0 1117 -425.25124 -420.84818  1.04%     - 41484s
     0     0 -420.84818    0 1123 -425.25124 -420.84818  1.04%     - 41485s
     0     0 -420.98783    0  987 -425.25124 -420.98783  1.00%     - 41489s
     0     0 -421.12748    0  749 -425.25124 -421.12748  0.97%     - 41490s
     0     0 -421.12748    0  594 -425.25124 -421.12748  0.97%     - 41491s
     0     0 -421.12748    0  589 -425.25124 -421.12748  0.97%     - 41492s
     0     0 -421.12748    0  611 -425.25124 -421.12748  0.97%     - 41493s
     0     0 -421.12748    0  506 -425.25124 -421.12748  0.97%     - 41495s
     0     0 -421.12748    0  506 -425.25124 -421.12748  0.97%     - 41514s
     0     2 -421.12748    0  506 -425.25124 -421.12748  0.97%     - 41518s
    15     5 -422.36384    1  436 -425.25124 -421.92582  0.78%  96.7 41520s
    52     3     cutoff    5      -425.25124 -423.42762  0.43%  74.5 41525s

Cutting planes:
  Gomory: 2
  Implied bound: 10
  Clique: 13
  Zero half: 112

Explored 66 nodes (1623754 simplex iterations) in 41526.64 seconds
Thread count was 1 (of 80 available processors)

Solution count 10: -425.251 -425.251 -425.251 ... -477.789

Optimal solution found (tolerance 1.00e-04)
Best objective -4.252512408194e+02, best bound -4.252512408194e+02, gap 0.0000%
